N = 6;
T1 = 20;
T2 = 15;
Songs = [s1, s2, s3, s4, s5, s6];
Canciones = [| 5, 7 | 3, 10 | 10, 8 | 5, 6 | 8, 8 | 7, 6 |];




% 4 20 15 15 7 10 10 5 6 10 8 

% 6 20 15 5 7 3 10 10 8 5 6 8 8 7 6 

% 2 10 10 10 7 15 4 